
Gurobi 7.0.2 (linux64, Matlab) logging started Sun Sep  2 08:55:41 2018


Gurobi 7.0.2 (linux64) logging started Sun Sep  2 08:55:41 2018

Optimize a model with 169576 rows, 167056 columns and 834166 nonzeros
Coefficient statistics:
  Matrix range     [1e+00, 4e+00]
  Objective range  [1e+00, 1e+00]
  Bounds range     [1e+00, 1e+00]
  RHS range        [1e+00, 1e+00]
Iteration    Objective       Primal Inf.    Dual Inf.      Time
       0    1.8825000e+02   0.000000e+00   0.000000e+00      0s

Solved in 0 iterations and 0.06 seconds
Optimal objective  1.882500000e+02
